/*********************************************
 * OPL 12.10.0.0 Data
 * Author: Kinast
 * Creation date: Aug 17, 2021 at 11:48:30 AM
 *********************************************/

 nOrders = 50;
 nTasks = 600;

 nWorkgroups = 10;
 nWorkstations = 50;

 nCobots = 0;
 cobotTimeFactor = 0.7;

 workstations = {
 	< 0, "Workstation 0", 0, 0.96, 0.79, 1, 3 >,
 	< 1, "Workstation 1", 1, 0.98, 1.14, 1, 2 >,
 	< 2, "Workstation 2", 2, 1.18, 0.95, 1, 1 >,
 	< 3, "Workstation 3", 3, 0.84, 1, 1, 3 >,
 	< 4, "Workstation 4", 0, 1.03, 1.21, 1, 5 >,
 	< 5, "Workstation 5", 4, 0.83, 1.04, 1, 5 >,
 	< 6, "Workstation 6", 5, 1.16, 0.86, 1, 1 >,
 	< 7, "Workstation 7", 1, 1.13, 0.95, 1, 1 >,
 	< 8, "Workstation 8", 0, 1.14, 0.86, 1, 1 >,
 	< 9, "Workstation 9", 6, 1.03, 1.21, 1, 5 >,
 	< 10, "Workstation 10", 7, 0.79, 0.87, 1, 2 >,
 	< 11, "Workstation 11", 3, 1.21, 0.93, 1, 3 >,
 	< 12, "Workstation 12", 8, 1.22, 0.79, 1, 1 >,
 	< 13, "Workstation 13", 3, 0.85, 0.87, 1, 2 >,
 	< 14, "Workstation 14", 4, 1.23, 0.88, 1, 2 >,
 	< 15, "Workstation 15", 5, 1.16, 0.83, 1, 1 >,
 	< 16, "Workstation 16", 5, 1.16, 0.81, 1, 1 >,
 	< 17, "Workstation 17", 2, 1.22, 1.1, 1, 1 >,
 	< 18, "Workstation 18", 9, 1.2, 0.79, 1, 1 >,
 	< 19, "Workstation 19", 6, 1.05, 1.04, 1, 1 >,
 	< 20, "Workstation 20", 9, 1.08, 1.19, 1, 1 >,
 	< 21, "Workstation 21", 8, 0.95, 0.82, 1, 1 >,
 	< 22, "Workstation 22", 7, 1.16, 0.87, 1, 1 >,
 	< 23, "Workstation 23", 1, 1.07, 1.18, 1, 1 >,
 	< 24, "Workstation 24", 5, 0.82, 1.01, 1, 1 >,
 	< 25, "Workstation 25", 0, 0.97, 1.1, 1, 1 >,
 	< 26, "Workstation 26", 1, 0.76, 0.95, 1, 4 >,
 	< 27, "Workstation 27", 7, 0.92, 0.87, 1, 2 >,
 	< 28, "Workstation 28", 2, 0.93, 1.13, 1, 3 >,
 	< 29, "Workstation 29", 9, 0.83, 1.01, 1, 1 >,
 	< 30, "Workstation 30", 7, 0.8, 0.9, 1, 2 >,
 	< 31, "Workstation 31", 8, 0.75, 1.03, 1, 2 >,
 	< 32, "Workstation 32", 6, 0.88, 0.78, 1, 2 >,
 	< 33, "Workstation 33", 6, 0.84, 0.79, 1, 1 >,
 	< 34, "Workstation 34", 2, 0.97, 0.94, 1, 4 >,
 	< 35, "Workstation 35", 9, 0.82, 0.85, 1, 5 >,
 	< 36, "Workstation 36", 6, 0.88, 1.02, 1, 1 >,
 	< 37, "Workstation 37", 0, 0.99, 1.16, 1, 4 >,
 	< 38, "Workstation 38", 7, 0.93, 1.22, 1, 1 >,
 	< 39, "Workstation 39", 2, 0.97, 1.13, 1, 1 >,
 	< 40, "Workstation 40", 1, 0.91, 0.81, 1, 3 >,
 	< 41, "Workstation 41", 4, 0.99, 1.1, 1, 1 >,
 	< 42, "Workstation 42", 3, 0.77, 1.19, 1, 5 >,
 	< 43, "Workstation 43", 4, 1.05, 1.01, 1, 1 >,
 	< 44, "Workstation 44", 5, 1.12, 1.24, 1, 1 >,
 	< 45, "Workstation 45", 9, 1.23, 0.91, 1, 3 >,
 	< 46, "Workstation 46", 4, 0.91, 1.03, 1, 1 >,
 	< 47, "Workstation 47", 8, 0.84, 1.17, 1, 1 >,
 	< 48, "Workstation 48", 3, 0.81, 1.03, 1, 1 >,
 	< 49, "Workstation 49", 8, 1.12, 0.91, 1, 4 >
 };

 tasks = {
 	// order 0
 	< 0, 0, 10, 66, 48, 137, 8, -1 >,
 	< 1, 0, 6, 0, 0, 166, 9, 0 >,
 	< 2, 0, 7, 80, 78, 188, 3, 1 >,
 	< 3, 0, 6, 0, 83, 179, 4, 2 >,
 	< 4, 0, 6, 38, 76, 158, 0, 3 >,
 	< 5, 0, 9, 48, 66, 200, 7, 4 >,
 	< 6, 0, 4, 62, 36, 151, 6, 5 >,
 	< 7, 0, 3, 0, 0, 153, 1, 6 >,
 	< 8, 0, 2, 0, 37, 140, 5, 7 >,
 	< 9, 0, 3, 0, 0, 122, 2, 8 >,
 	< 10, 0, 5, 0, 0, 137, 8, 9 >,
 	< 11, 0, 10, 0, 0, 161, 9, 10 >,
 	// order 1
 	< 12, 1, 8, 88, 85, 118, 3, -1 >,
 	< 13, 1, 8, 0, 46, 106, 4, 12 >,
 	< 14, 1, 6, 49, 70, 103, 0, 13 >,
 	< 15, 1, 5, 97, 42, 166, 7, 14 >,
 	< 16, 1, 5, 0, 35, 171, 6, 15 >,
 	< 17, 1, 1, 0, 0, 142, 1, 16 >,
 	< 18, 1, 1, 64, 0, 139, 5, 17 >,
 	< 19, 1, 7, 0, 0, 119, 2, 18 >,
 	< 20, 1, 8, 99, 0, 166, 8, 19 >,
 	< 21, 1, 4, 0, 81, 133, 9, 20 >,
 	< 22, 1, 6, 34, 0, 161, 3, 21 >,
 	< 23, 1, 1, 0, 39, 109, 4, 22 >,
 	// order 2
 	< 24, 2, 10, 0, 82, 165, 0, -1 >,
 	< 25, 2, 5, 0, 51, 118, 7, 24 >,
 	< 26, 2, 4, 0, 83, 182, 6, 25 >,
 	< 27, 2, 7, 48, 0, 134, 1, 26 >,
 	< 28, 2, 10, 0, 0, 102, 5, 27 >,
 	< 29, 2, 10, 100, 92, 130, 2, 28 >,
 	< 30, 2, 1, 46, 0, 119, 8, 29 >,
 	< 31, 2, 5, 0, 0, 152, 9, 30 >,
 	< 32, 2, 3, 0, 0, 132, 3, 31 >,
 	< 33, 2, 6, 66, 0, 131, 4, 32 >,
 	< 34, 2, 3, 56, 0, 131, 0, 33 >,
 	< 35, 2, 8, 0, 30, 150, 7, 34 >,
 	// order 3
 	< 36, 3, 9, 61, 0, 191, 6, -1 >,
 	< 37, 3, 10, 0, 0, 180, 1, 36 >,
 	< 38, 3, 5, 58, 61, 174, 5, 37 >,
 	< 39, 3, 3, 0, 84, 178, 2, 38 >,
 	< 40, 3, 1, 0, 78, 164, 8, 39 >,
 	< 41, 3, 10, 92, 61, 193, 9, 40 >,
 	< 42, 3, 3, 0, 59, 165, 3, 41 >,
 	< 43, 3, 8, 0, 0, 132, 4, 42 >,
 	< 44, 3, 4, 81, 82, 183, 0, 43 >,
 	< 45, 3, 4, 57, 0, 175, 7, 44 >,
 	< 46, 3, 7, 0, 0, 146, 6, 45 >,
 	< 47, 3, 5, 0, 65, 199, 1, 46 >,
 	// order 4
 	< 48, 4, 1, 0, 55, 152, 5, -1 >,
 	< 49, 4, 3, 38, 0, 108, 2, 48 >,
 	< 50, 4, 5, 35, 0, 141, 8, 49 >,
 	< 51, 4, 5, 32, 87, 159, 9, 50 >,
 	< 52, 4, 10, 0, 79, 130, 3, 51 >,
 	< 53, 4, 2, 0, 0, 102, 4, 52 >,
 	< 54, 4, 5, 0, 64, 124, 0, 53 >,
 	< 55, 4, 1, 55, 0, 147, 7, 54 >,
 	< 56, 4, 9, 0, 51, 163, 6, 55 >,
 	< 57, 4, 9, 78, 99, 171, 1, 56 >,
 	< 58, 4, 2, 79, 0, 108, 5, 57 >,
 	< 59, 4, 8, 0, 45, 112, 2, 58 >,
 	// order 5
 	< 60, 5, 8, 0, 0, 162, 8, -1 >,
 	< 61, 5, 5, 0, 44, 133, 9, 60 >,
 	< 62, 5, 8, 0, 63, 197, 3, 61 >,
 	< 63, 5, 4, 0, 0, 191, 4, 62 >,
 	< 64, 5, 9, 63, 0, 108, 0, 63 >,
 	< 65, 5, 4, 0, 0, 198, 7, 64 >,
 	< 66, 5, 1, 0, 0, 150, 6, 65 >,
 	< 67, 5, 8, 54, 0, 114, 1, 66 >,
 	< 68, 5, 10, 42, 97, 148, 5, 67 >,
 	< 69, 5, 5, 0, 0, 124, 2, 68 >,
 	< 70, 5, 4, 30, 0, 160, 8, 69 >,
 	< 71, 5, 4, 63, 60, 198, 9, 70 >,
 	// order 6
 	< 72, 6, 7, 0, 0, 123, 3, -1 >,
 	< 73, 6, 6, 0, 0, 122, 4, 72 >,
 	< 74, 6, 7, 0, 0, 192, 0, 73 >,
 	< 75, 6, 3, 0, 81, 112, 7, 74 >,
 	< 76, 6, 8, 92, 96, 106, 6, 75 >,
 	< 77, 6, 9, 0, 0, 115, 1, 76 >,
 	< 78, 6, 7, 0, 60, 168, 5, 77 >,
 	< 79, 6, 7, 0, 0, 136, 2, 78 >,
 	< 80, 6, 10, 0, 0, 143, 8, 79 >,
 	< 81, 6, 5, 0, 46, 121, 9, 80 >,
 	< 82, 6, 9, 89, 0, 163, 3, 81 >,
 	< 83, 6, 8, 77, 39, 176, 4, 82 >,
 	// order 7
 	< 84, 7, 3, 0, 60, 190, 0, -1 >,
 	< 85, 7, 4, 0, 71, 145, 7, 84 >,
 	< 86, 7, 3, 0, 41, 181, 6, 85 >,
 	< 87, 7, 7, 0, 62, 181, 1, 86 >,
 	< 88, 7, 2, 74, 0, 131, 5, 87 >,
 	< 89, 7, 4, 66, 0, 176, 2, 88 >,
 	< 90, 7, 1, 0, 0, 147, 8, 89 >,
 	< 91, 7, 2, 0, 0, 102, 9, 90 >,
 	< 92, 7, 6, 0, 30, 165, 3, 91 >,
 	< 93, 7, 8, 78, 94, 182, 4, 92 >,
 	< 94, 7, 1, 0, 0, 108, 0, 93 >,
 	< 95, 7, 4, 59, 70, 111, 7, 94 >,
 	// order 8
 	< 96, 8, 6, 69, 88, 144, 6, -1 >,
 	< 97, 8, 2, 0, 0, 105, 1, 96 >,
 	< 98, 8, 4, 0, 0, 102, 5, 97 >,
 	< 99, 8, 4, 41, 0, 187, 2, 98 >,
 	< 100, 8, 9, 61, 79, 109, 8, 99 >,
 	< 101, 8, 5, 30, 92, 169, 9, 100 >,
 	< 102, 8, 8, 94, 51, 139, 3, 101 >,
 	< 103, 8, 5, 52, 0, 163, 4, 102 >,
 	< 104, 8, 4, 65, 30, 108, 0, 103 >,
 	< 105, 8, 7, 0, 0, 124, 7, 104 >,
 	< 106, 8, 10, 64, 0, 106, 6, 105 >,
 	< 107, 8, 9, 57, 43, 136, 1, 106 >,
 	// order 9
 	< 108, 9, 7, 0, 51, 141, 5, -1 >,
 	< 109, 9, 1, 0, 0, 175, 2, 108 >,
 	< 110, 9, 4, 68, 33, 184, 8, 109 >,
 	< 111, 9, 2, 0, 0, 183, 9, 110 >,
 	< 112, 9, 4, 0, 0, 144, 3, 111 >,
 	< 113, 9, 8, 0, 0, 182, 4, 112 >,
 	< 114, 9, 3, 94, 0, 179, 0, 113 >,
 	< 115, 9, 2, 0, 64, 190, 7, 114 >,
 	< 116, 9, 6, 30, 30, 167, 6, 115 >,
 	< 117, 9, 9, 0, 0, 148, 1, 116 >,
 	< 118, 9, 1, 0, 47, 197, 5, 117 >,
 	< 119, 9, 8, 39, 0, 193, 2, 118 >,
 	// order 10
 	< 120, 10, 9, 0, 47, 187, 8, -1 >,
 	< 121, 10, 10, 94, 58, 172, 9, 120 >,
 	< 122, 10, 3, 0, 0, 171, 3, 121 >,
 	< 123, 10, 9, 80, 0, 179, 4, 122 >,
 	< 124, 10, 6, 0, 0, 196, 0, 123 >,
 	< 125, 10, 8, 0, 76, 147, 7, 124 >,
 	< 126, 10, 1, 0, 0, 164, 6, 125 >,
 	< 127, 10, 6, 0, 0, 161, 1, 126 >,
 	< 128, 10, 8, 34, 99, 161, 5, 127 >,
 	< 129, 10, 8, 89, 55, 154, 2, 128 >,
 	< 130, 10, 2, 42, 55, 137, 8, 129 >,
 	< 131, 10, 5, 0, 0, 152, 9, 130 >,
 	// order 11
 	< 132, 11, 9, 0, 0, 145, 3, -1 >,
 	< 133, 11, 7, 0, 73, 178, 4, 132 >,
 	< 134, 11, 3, 0, 0, 104, 0, 133 >,
 	< 135, 11, 10, 0, 70, 180, 7, 134 >,
 	< 136, 11, 4, 0, 38, 152, 6, 135 >,
 	< 137, 11, 2, 0, 0, 108, 1, 136 >,
 	< 138, 11, 3, 0, 0, 164, 5, 137 >,
 	< 139, 11, 5, 47, 30, 162, 2, 138 >,
 	< 140, 11, 6, 72, 0, 122, 8, 139 >,
 	< 141, 11, 2, 0, 0, 192, 9, 140 >,
 	< 142, 11, 9, 0, 57, 181, 3, 141 >,
 	< 143, 11, 7, 89, 82, 155, 4, 142 >,
 	// order 12
 	< 144, 12, 1, 0, 0, 105, 0, -1 >,
 	< 145, 12, 4, 0, 73, 182, 7, 144 >,
 	< 146, 12, 7, 36, 0, 135, 6, 145 >,
 	< 147, 12, 1, 83, 0, 167, 1, 146 >,
 	< 148, 12, 1, 0, 59, 135, 5, 147 >,
 	< 149, 12, 9, 0, 58, 100, 2, 148 >,
 	< 150, 12, 8, 74, 0, 145, 8, 149 >,
 	< 151, 12, 6, 0, 0, 154, 9, 150 >,
 	< 152, 12, 9, 67, 0, 147, 3, 151 >,
 	< 153, 12, 3, 0, 0, 165, 4, 152 >,
 	< 154, 12, 1, 84, 88, 195, 0, 153 >,
 	< 155, 12, 8, 0, 0, 170, 7, 154 >,
 	// order 13
 	< 156, 13, 2, 0, 60, 118, 6, -1 >,
 	< 157, 13, 6, 0, 41, 196, 1, 156 >,
 	< 158, 13, 7, 73, 0, 120, 5, 157 >,
 	< 159, 13, 3, 64, 54, 114, 2, 158 >,
 	< 160, 13, 3, 85, 74, 124, 8, 159 >,
 	< 161, 13, 9, 78, 0, 131, 9, 160 >,
 	< 162, 13, 3, 52, 0, 186, 3, 161 >,
 	< 163, 13, 5, 0, 61, 139, 4, 162 >,
 	< 164, 13, 9, 0, 44, 114, 0, 163 >,
 	< 165, 13, 4, 73, 0, 122, 7, 164 >,
 	< 166, 13, 3, 69, 61, 117, 6, 165 >,
 	< 167, 13, 6, 55, 0, 196, 1, 166 >,
 	// order 14
 	< 168, 14, 5, 56, 93, 110, 5, -1 >,
 	< 169, 14, 9, 0, 0, 114, 2, 168 >,
 	< 170, 14, 1, 83, 0, 159, 8, 169 >,
 	< 171, 14, 9, 64, 40, 132, 9, 170 >,
 	< 172, 14, 6, 0, 0, 132, 3, 171 >,
 	< 173, 14, 2, 0, 78, 190, 4, 172 >,
 	< 174, 14, 8, 48, 0, 141, 0, 173 >,
 	< 175, 14, 7, 74, 0, 125, 7, 174 >,
 	< 176, 14, 9, 0, 35, 122, 6, 175 >,
 	< 177, 14, 1, 60, 55, 192, 1, 176 >,
 	< 178, 14, 1, 0, 0, 164, 5, 177 >,
 	< 179, 14, 10, 0, 0, 126, 2, 178 >,
 	// order 15
 	< 180, 15, 8, 97, 59, 135, 8, -1 >,
 	< 181, 15, 5, 52, 97, 124, 9, 180 >,
 	< 182, 15, 1, 0, 51, 106, 3, 181 >,
 	< 183, 15, 7, 0, 51, 136, 4, 182 >,
 	< 184, 15, 1, 0, 0, 199, 0, 183 >,
 	< 185, 15, 8, 0, 0, 180, 7, 184 >,
 	< 186, 15, 5, 0, 0, 137, 6, 185 >,
 	< 187, 15, 6, 94, 60, 174, 1, 186 >,
 	< 188, 15, 8, 0, 0, 143, 5, 187 >,
 	< 189, 15, 9, 0, 89, 185, 2, 188 >,
 	< 190, 15, 8, 51, 0, 144, 8, 189 >,
 	< 191, 15, 10, 0, 92, 135, 9, 190 >,
 	// order 16
 	< 192, 16, 5, 57, 0, 151, 3, -1 >,
 	< 193, 16, 6, 98, 80, 100, 4, 192 >,
 	< 194, 16, 4, 0, 0, 138, 0, 193 >,
 	< 195, 16, 1, 91, 41, 121, 7, 194 >,
 	< 196, 16, 1, 46, 45, 113, 6, 195 >,
 	< 197, 16, 1, 59, 0, 102, 1, 196 >,
 	< 198, 16, 1, 0, 0, 111, 5, 197 >,
 	< 199, 16, 4, 99, 47, 115, 2, 198 >,
 	< 200, 16, 3, 0, 53, 108, 8, 199 >,
 	< 201, 16, 1, 54, 0, 150, 9, 200 >,
 	< 202, 16, 10, 39, 0, 172, 3, 201 >,
 	< 203, 16, 2, 50, 0, 158, 4, 202 >,
 	// order 17
 	< 204, 17, 2, 0, 99, 137, 0, -1 >,
 	< 205, 17, 3, 0, 0, 174, 7, 204 >,
 	< 206, 17, 10, 81, 34, 185, 6, 205 >,
 	< 207, 17, 8, 0, 0, 114, 1, 206 >,
 	< 208, 17, 1, 0, 0, 137, 5, 207 >,
 	< 209, 17, 7, 0, 0, 108, 2, 208 >,
 	< 210, 17, 7, 0, 0, 109, 8, 209 >,
 	< 211, 17, 7, 0, 32, 100, 9, 210 >,
 	< 212, 17, 6, 98, 91, 158, 3, 211 >,
 	< 213, 17, 7, 0, 48, 181, 4, 212 >,
 	< 214, 17, 1, 0, 85, 170, 0, 213 >,
 	< 215, 17, 2, 0, 0, 163, 7, 214 >,
 	// order 18
 	< 216, 18, 9, 96, 0, 118, 6, -1 >,
 	< 217, 18, 6, 68, 43, 128, 1, 216 >,
 	< 218, 18, 3, 0, 45, 153, 5, 217 >,
 	< 219, 18, 3, 0, 0, 165, 2, 218 >,
 	< 220, 18, 9, 0, 0, 177, 8, 219 >,
 	< 221, 18, 5, 0, 0, 145, 9, 220 >,
 	< 222, 18, 5, 0, 34, 133, 3, 221 >,
 	< 223, 18, 5, 0, 95, 189, 4, 222 >,
 	< 224, 18, 7, 0, 34, 123, 0, 223 >,
 	< 225, 18, 5, 70, 0, 165, 7, 224 >,
 	< 226, 18, 8, 0, 0, 181, 6, 225 >,
 	< 227, 18, 3, 82, 91, 117, 1, 226 >,
 	// order 19
 	< 228, 19, 6, 0, 0, 142, 5, -1 >,
 	< 229, 19, 2, 0, 45, 192, 2, 228 >,
 	< 230, 19, 7, 69, 53, 172, 8, 229 >,
 	< 231, 19, 9, 88, 0, 161, 9, 230 >,
 	< 232, 19, 8, 98, 80, 116, 3, 231 >,
 	< 233, 19, 10, 91, 77, 155, 4, 232 >,
 	< 234, 19, 8, 51, 0, 196, 0, 233 >,
 	< 235, 19, 3, 85, 85, 165, 7, 234 >,
 	< 236, 19, 5, 42, 39, 109, 6, 235 >,
 	< 237, 19, 4, 95, 48, 139, 1, 236 >,
 	< 238, 19, 7, 0, 79, 196, 5, 237 >,
 	< 239, 19, 6, 55, 0, 196, 2, 238 >,
 	// order 20
 	< 240, 20, 2, 90, 0, 126, 8, -1 >,
 	< 241, 20, 10, 92, 0, 183, 9, 240 >,
 	< 242, 20, 1, 0, 71, 154, 3, 241 >,
 	< 243, 20, 6, 75, 92, 175, 4, 242 >,
 	< 244, 20, 1, 55, 47, 111, 0, 243 >,
 	< 245, 20, 6, 47, 60, 136, 7, 244 >,
 	< 246, 20, 5, 59, 38, 184, 6, 245 >,
 	< 247, 20, 5, 0, 0, 127, 1, 246 >,
 	< 248, 20, 5, 0, 0, 166, 5, 247 >,
 	< 249, 20, 3, 0, 0, 175, 2, 248 >,
 	< 250, 20, 3, 58, 0, 115, 8, 249 >,
 	< 251, 20, 3, 0, 0, 101, 9, 250 >,
 	// order 21
 	< 252, 21, 8, 0, 31, 196, 3, -1 >,
 	< 253, 21, 6, 34, 38, 171, 4, 252 >,
 	< 254, 21, 7, 34, 80, 173, 0, 253 >,
 	< 255, 21, 2, 48, 91, 143, 7, 254 >,
 	< 256, 21, 6, 0, 71, 197, 6, 255 >,
 	< 257, 21, 3, 44, 0, 174, 1, 256 >,
 	< 258, 21, 9, 33, 0, 125, 5, 257 >,
 	< 259, 21, 5, 63, 61, 104, 2, 258 >,
 	< 260, 21, 8, 0, 0, 178, 8, 259 >,
 	< 261, 21, 7, 0, 0, 109, 9, 260 >,
 	< 262, 21, 6, 0, 0, 194, 3, 261 >,
 	< 263, 21, 7, 0, 55, 100, 4, 262 >,
 	// order 22
 	< 264, 22, 10, 42, 58, 194, 0, -1 >,
 	< 265, 22, 10, 0, 69, 147, 7, 264 >,
 	< 266, 22, 7, 0, 100, 141, 6, 265 >,
 	< 267, 22, 4, 59, 0, 180, 1, 266 >,
 	< 268, 22, 4, 45, 0, 181, 5, 267 >,
 	< 269, 22, 7, 0, 59, 181, 2, 268 >,
 	< 270, 22, 8, 0, 67, 181, 8, 269 >,
 	< 271, 22, 3, 0, 0, 114, 9, 270 >,
 	< 272, 22, 5, 0, 96, 195, 3, 271 >,
 	< 273, 22, 5, 0, 0, 144, 4, 272 >,
 	< 274, 22, 6, 0, 37, 124, 0, 273 >,
 	< 275, 22, 3, 30, 86, 160, 7, 274 >,
 	// order 23
 	< 276, 23, 4, 79, 0, 174, 6, -1 >,
 	< 277, 23, 8, 58, 0, 118, 1, 276 >,
 	< 278, 23, 2, 0, 0, 127, 5, 277 >,
 	< 279, 23, 7, 0, 0, 185, 2, 278 >,
 	< 280, 23, 3, 64, 0, 196, 8, 279 >,
 	< 281, 23, 2, 0, 0, 162, 9, 280 >,
 	< 282, 23, 9, 94, 52, 134, 3, 281 >,
 	< 283, 23, 8, 95, 72, 120, 4, 282 >,
 	< 284, 23, 2, 95, 0, 125, 0, 283 >,
 	< 285, 23, 4, 34, 74, 178, 7, 284 >,
 	< 286, 23, 2, 0, 38, 111, 6, 285 >,
 	< 287, 23, 1, 65, 0, 147, 1, 286 >,
 	// order 24
 	< 288, 24, 2, 87, 0, 138, 5, -1 >,
 	< 289, 24, 9, 82, 0, 170, 2, 288 >,
 	< 290, 24, 8, 75, 0, 176, 8, 289 >,
 	< 291, 24, 6, 0, 87, 119, 9, 290 >,
 	< 292, 24, 3, 46, 81, 165, 3, 291 >,
 	< 293, 24, 7, 0, 86, 129, 4, 292 >,
 	< 294, 24, 2, 0, 34, 123, 0, 293 >,
 	< 295, 24, 2, 92, 35, 133, 7, 294 >,
 	< 296, 24, 4, 31, 0, 151, 6, 295 >,
 	< 297, 24, 7, 0, 86, 192, 1, 296 >,
 	< 298, 24, 7, 48, 0, 144, 5, 297 >,
 	< 299, 24, 1, 81, 0, 170, 2, 298 >,
 	// order 25
 	< 300, 25, 2, 58, 54, 192, 8, -1 >,
 	< 301, 25, 10, 62, 88, 123, 9, 300 >,
 	< 302, 25, 2, 57, 0, 179, 3, 301 >,
 	< 303, 25, 4, 0, 90, 108, 4, 302 >,
 	< 304, 25, 10, 0, 0, 155, 0, 303 >,
 	< 305, 25, 5, 86, 0, 105, 7, 304 >,
 	< 306, 25, 2, 0, 0, 123, 6, 305 >,
 	< 307, 25, 8, 61, 0, 160, 1, 306 >,
 	< 308, 25, 7, 36, 0, 109, 5, 307 >,
 	< 309, 25, 5, 58, 38, 121, 2, 308 >,
 	< 310, 25, 3, 43, 31, 166, 8, 309 >,
 	< 311, 25, 1, 0, 61, 128, 9, 310 >,
 	// order 26
 	< 312, 26, 8, 0, 0, 168, 3, -1 >,
 	< 313, 26, 9, 75, 86, 134, 4, 312 >,
 	< 314, 26, 4, 55, 0, 199, 0, 313 >,
 	< 315, 26, 8, 0, 0, 173, 7, 314 >,
 	< 316, 26, 1, 78, 85, 155, 6, 315 >,
 	< 317, 26, 2, 44, 0, 150, 1, 316 >,
 	< 318, 26, 4, 0, 0, 135, 5, 317 >,
 	< 319, 26, 2, 85, 0, 162, 2, 318 >,
 	< 320, 26, 1, 52, 0, 188, 8, 319 >,
 	< 321, 26, 10, 0, 89, 103, 9, 320 >,
 	< 322, 26, 10, 34, 0, 138, 3, 321 >,
 	< 323, 26, 6, 0, 0, 169, 4, 322 >,
 	// order 27
 	< 324, 27, 2, 44, 0, 157, 0, -1 >,
 	< 325, 27, 3, 37, 0, 100, 7, 324 >,
 	< 326, 27, 9, 0, 91, 141, 6, 325 >,
 	< 327, 27, 7, 0, 0, 135, 1, 326 >,
 	< 328, 27, 1, 64, 0, 169, 5, 327 >,
 	< 329, 27, 2, 0, 50, 117, 2, 328 >,
 	< 330, 27, 8, 34, 0, 109, 8, 329 >,
 	< 331, 27, 3, 93, 0, 176, 9, 330 >,
 	< 332, 27, 1, 88, 88, 195, 3, 331 >,
 	< 333, 27, 8, 92, 59, 106, 4, 332 >,
 	< 334, 27, 2, 59, 75, 128, 0, 333 >,
 	< 335, 27, 6, 0, 0, 155, 7, 334 >,
 	// order 28
 	< 336, 28, 7, 73, 0, 184, 6, -1 >,
 	< 337, 28, 10, 70, 0, 176, 1, 336 >,
 	< 338, 28, 10, 52, 0, 103, 5, 337 >,
 	< 339, 28, 9, 82, 0, 115, 2, 338 >,
 	< 340, 28, 9, 84, 80, 135, 8, 339 >,
 	< 341, 28, 9, 0, 78, 138, 9, 340 >,
 	< 342, 28, 1, 0, 0, 118, 3, 341 >,
 	< 343, 28, 9, 0, 37, 188, 4, 342 >,
 	< 344, 28, 2, 0, 0, 166, 0, 343 >,
 	< 345, 28, 1, 0, 0, 128, 7, 344 >,
 	< 346, 28, 8, 82, 92, 127, 6, 345 >,
 	< 347, 28, 7, 0, 0, 192, 1, 346 >,
 	// order 29
 	< 348, 29, 5, 0, 0, 158, 5, -1 >,
 	< 349, 29, 10, 56, 54, 183, 2, 348 >,
 	< 350, 29, 10, 0, 94, 163, 8, 349 >,
 	< 351, 29, 6, 0, 58, 110, 9, 350 >,
 	< 352, 29, 7, 0, 72, 146, 3, 351 >,
 	< 353, 29, 9, 73, 0, 105, 4, 352 >,
 	< 354, 29, 9, 0, 40, 116, 0, 353 >,
 	< 355, 29, 7, 70, 0, 147, 7, 354 >,
 	< 356, 29, 3, 0, 0, 157, 6, 355 >,
 	< 357, 29, 4, 37, 39, 137, 1, 356 >,
 	< 358, 29, 3, 0, 34, 128, 5, 357 >,
 	< 359, 29, 3, 60, 0, 111, 2, 358 >,
 	// order 30
 	< 360, 30, 9, 82, 0, 101, 8, -1 >,
 	< 361, 30, 9, 0, 83, 200, 9, 360 >,
 	< 362, 30, 7, 0, 0, 194, 3, 361 >,
 	< 363, 30, 9, 0, 0, 140, 4, 362 >,
 	< 364, 30, 3, 80, 0, 147, 0, 363 >,
 	< 365, 30, 9, 78, 0, 166, 7, 364 >,
 	< 366, 30, 9, 38, 0, 145, 6, 365 >,
 	< 367, 30, 3, 66, 0, 182, 1, 366 >,
 	< 368, 30, 6, 45, 35, 114, 5, 367 >,
 	< 369, 30, 8, 99, 46, 180, 2, 368 >,
 	< 370, 30, 1, 0, 0, 131, 8, 369 >,
 	< 371, 30, 5, 51, 65, 134, 9, 370 >,
 	// order 31
 	< 372, 31, 4, 81, 92, 127, 3, -1 >,
 	< 373, 31, 10, 49, 0, 108, 4, 372 >,
 	< 374, 31, 4, 83, 44, 102, 0, 373 >,
 	< 375, 31, 4, 0, 79, 171, 7, 374 >,
 	< 376, 31, 5, 0, 30, 122, 6, 375 >,
 	< 377, 31, 2, 97, 0, 148, 1, 376 >,
 	< 378, 31, 4, 0, 0, 145, 5, 377 >,
 	< 379, 31, 8, 0, 0, 143, 2, 378 >,
 	< 380, 31, 9, 0, 0, 192, 8, 379 >,
 	< 381, 31, 8, 48, 0, 172, 9, 380 >,
 	< 382, 31, 3, 98, 69, 164, 3, 381 >,
 	< 383, 31, 7, 0, 91, 188, 4, 382 >,
 	// order 32
 	< 384, 32, 1, 100, 0, 110, 0, -1 >,
 	< 385, 32, 6, 0, 74, 114, 7, 384 >,
 	< 386, 32, 5, 34, 37, 160, 6, 385 >,
 	< 387, 32, 3, 55, 0, 174, 1, 386 >,
 	< 388, 32, 9, 0, 49, 124, 5, 387 >,
 	< 389, 32, 7, 69, 0, 110, 2, 388 >,
 	< 390, 32, 2, 0, 0, 138, 8, 389 >,
 	< 391, 32, 1, 0, 0, 182, 9, 390 >,
 	< 392, 32, 2, 73, 71, 179, 3, 391 >,
 	< 393, 32, 10, 38, 0, 104, 4, 392 >,
 	< 394, 32, 5, 50, 39, 124, 0, 393 >,
 	< 395, 32, 5, 0, 0, 186, 7, 394 >,
 	// order 33
 	< 396, 33, 10, 0, 0, 118, 6, -1 >,
 	< 397, 33, 1, 0, 0, 168, 1, 396 >,
 	< 398, 33, 4, 0, 0, 113, 5, 397 >,
 	< 399, 33, 7, 0, 39, 101, 2, 398 >,
 	< 400, 33, 9, 53, 0, 156, 8, 399 >,
 	< 401, 33, 4, 31, 0, 186, 9, 400 >,
 	< 402, 33, 9, 0, 0, 158, 3, 401 >,
 	< 403, 33, 8, 0, 43, 136, 4, 402 >,
 	< 404, 33, 6, 68, 76, 122, 0, 403 >,
 	< 405, 33, 9, 0, 50, 115, 7, 404 >,
 	< 406, 33, 1, 30, 0, 158, 6, 405 >,
 	< 407, 33, 5, 66, 0, 197, 1, 406 >,
 	// order 34
 	< 408, 34, 6, 0, 59, 147, 5, -1 >,
 	< 409, 34, 5, 0, 78, 107, 2, 408 >,
 	< 410, 34, 8, 0, 0, 160, 8, 409 >,
 	< 411, 34, 5, 0, 0, 168, 9, 410 >,
 	< 412, 34, 2, 98, 82, 111, 3, 411 >,
 	< 413, 34, 9, 47, 100, 136, 4, 412 >,
 	< 414, 34, 4, 0, 58, 196, 0, 413 >,
 	< 415, 34, 5, 37, 0, 179, 7, 414 >,
 	< 416, 34, 7, 92, 0, 143, 6, 415 >,
 	< 417, 34, 10, 59, 50, 107, 1, 416 >,
 	< 418, 34, 1, 0, 100, 162, 5, 417 >,
 	< 419, 34, 5, 72, 43, 126, 2, 418 >,
 	// order 35
 	< 420, 35, 6, 0, 49, 123, 8, -1 >,
 	< 421, 35, 9, 99, 48, 150, 9, 420 >,
 	< 422, 35, 4, 0, 0, 107, 3, 421 >,
 	< 423, 35, 6, 89, 0, 183, 4, 422 >,
 	< 424, 35, 1, 50, 0, 104, 0, 423 >,
 	< 425, 35, 2, 0, 0, 102, 7, 424 >,
 	< 426, 35, 2, 68, 56, 129, 6, 425 >,
 	< 427, 35, 6, 0, 0, 176, 1, 426 >,
 	< 428, 35, 9, 89, 88, 157, 5, 427 >,
 	< 429, 35, 1, 90, 92, 196, 2, 428 >,
 	< 430, 35, 8, 55, 0, 182, 8, 429 >,
 	< 431, 35, 1, 0, 0, 103, 9, 430 >,
 	// order 36
 	< 432, 36, 5, 0, 56, 174, 3, -1 >,
 	< 433, 36, 10, 81, 67, 106, 4, 432 >,
 	< 434, 36, 6, 0, 0, 106, 0, 433 >,
 	< 435, 36, 3, 63, 98, 168, 7, 434 >,
 	< 436, 36, 6, 40, 0, 176, 6, 435 >,
 	< 437, 36, 1, 0, 0, 148, 1, 436 >,
 	< 438, 36, 6, 95, 58, 147, 5, 437 >,
 	< 439, 36, 9, 0, 0, 162, 2, 438 >,
 	< 440, 36, 4, 30, 0, 182, 8, 439 >,
 	< 441, 36, 5, 49, 0, 193, 9, 440 >,
 	< 442, 36, 9, 84, 0, 135, 3, 441 >,
 	< 443, 36, 10, 87, 0, 199, 4, 442 >,
 	// order 37
 	< 444, 37, 10, 0, 56, 101, 0, -1 >,
 	< 445, 37, 1, 55, 72, 135, 7, 444 >,
 	< 446, 37, 6, 0, 0, 161, 6, 445 >,
 	< 447, 37, 9, 85, 0, 176, 1, 446 >,
 	< 448, 37, 1, 96, 0, 161, 5, 447 >,
 	< 449, 37, 10, 0, 56, 150, 2, 448 >,
 	< 450, 37, 10, 0, 0, 109, 8, 449 >,
 	< 451, 37, 7, 49, 100, 174, 9, 450 >,
 	< 452, 37, 9, 0, 0, 171, 3, 451 >,
 	< 453, 37, 6, 0, 0, 169, 4, 452 >,
 	< 454, 37, 7, 0, 0, 172, 0, 453 >,
 	< 455, 37, 5, 0, 43, 156, 7, 454 >,
 	// order 38
 	< 456, 38, 3, 36, 97, 199, 6, -1 >,
 	< 457, 38, 4, 48, 0, 128, 1, 456 >,
 	< 458, 38, 5, 73, 85, 160, 5, 457 >,
 	< 459, 38, 10, 51, 0, 170, 2, 458 >,
 	< 460, 38, 3, 67, 93, 113, 8, 459 >,
 	< 461, 38, 3, 86, 0, 150, 9, 460 >,
 	< 462, 38, 3, 0, 94, 188, 3, 461 >,
 	< 463, 38, 9, 0, 0, 108, 4, 462 >,
 	< 464, 38, 4, 0, 50, 191, 0, 463 >,
 	< 465, 38, 9, 0, 92, 150, 7, 464 >,
 	< 466, 38, 2, 54, 64, 134, 6, 465 >,
 	< 467, 38, 4, 36, 0, 137, 1, 466 >,
 	// order 39
 	< 468, 39, 7, 36, 63, 159, 5, -1 >,
 	< 469, 39, 1, 81, 0, 144, 2, 468 >,
 	< 470, 39, 2, 0, 0, 127, 8, 469 >,
 	< 471, 39, 9, 0, 0, 103, 9, 470 >,
 	< 472, 39, 7, 0, 50, 107, 3, 471 >,
 	< 473, 39, 7, 63, 0, 157, 4, 472 >,
 	< 474, 39, 6, 46, 80, 166, 0, 473 >,
 	< 475, 39, 5, 57, 0, 127, 7, 474 >,
 	< 476, 39, 5, 0, 0, 145, 6, 475 >,
 	< 477, 39, 7, 44, 0, 121, 1, 476 >,
 	< 478, 39, 6, 0, 34, 154, 5, 477 >,
 	< 479, 39, 1, 47, 0, 129, 2, 478 >,
 	// order 40
 	< 480, 40, 6, 0, 51, 118, 8, -1 >,
 	< 481, 40, 2, 0, 0, 143, 9, 480 >,
 	< 482, 40, 8, 31, 76, 176, 3, 481 >,
 	< 483, 40, 3, 0, 89, 139, 4, 482 >,
 	< 484, 40, 10, 51, 0, 105, 0, 483 >,
 	< 485, 40, 5, 0, 0, 136, 7, 484 >,
 	< 486, 40, 7, 45, 36, 192, 6, 485 >,
 	< 487, 40, 2, 84, 52, 147, 1, 486 >,
 	< 488, 40, 5, 59, 0, 149, 5, 487 >,
 	< 489, 40, 3, 0, 0, 131, 2, 488 >,
 	< 490, 40, 9, 0, 0, 163, 8, 489 >,
 	< 491, 40, 4, 87, 0, 124, 9, 490 >,
 	// order 41
 	< 492, 41, 8, 0, 0, 194, 3, -1 >,
 	< 493, 41, 8, 71, 0, 178, 4, 492 >,
 	< 494, 41, 8, 60, 0, 160, 0, 493 >,
 	< 495, 41, 6, 66, 93, 176, 7, 494 >,
 	< 496, 41, 6, 0, 91, 104, 6, 495 >,
 	< 497, 41, 9, 0, 42, 171, 1, 496 >,
 	< 498, 41, 2, 0, 0, 152, 5, 497 >,
 	< 499, 41, 3, 0, 0, 147, 2, 498 >,
 	< 500, 41, 10, 0, 49, 145, 8, 499 >,
 	< 501, 41, 5, 92, 0, 175, 9, 500 >,
 	< 502, 41, 9, 91, 95, 171, 3, 501 >,
 	< 503, 41, 7, 0, 0, 117, 4, 502 >,
 	// order 42
 	< 504, 42, 9, 71, 32, 106, 0, -1 >,
 	< 505, 42, 6, 0, 0, 197, 7, 504 >,
 	< 506, 42, 4, 0, 0, 104, 6, 505 >,
 	< 507, 42, 10, 0, 50, 179, 1, 506 >,
 	< 508, 42, 4, 0, 0, 150, 5, 507 >,
 	< 509, 42, 7, 63, 53, 140, 2, 508 >,
 	< 510, 42, 7, 83, 0, 126, 8, 509 >,
 	< 511, 42, 6, 0, 34, 125, 9, 510 >,
 	< 512, 42, 4, 59, 56, 140, 3, 511 >,
 	< 513, 42, 7, 0, 90, 147, 4, 512 >,
 	< 514, 42, 8, 0, 90, 200, 0, 513 >,
 	< 515, 42, 8, 0, 89, 156, 7, 514 >,
 	// order 43
 	< 516, 43, 3, 0, 65, 111, 6, -1 >,
 	< 517, 43, 6, 0, 0, 147, 1, 516 >,
 	< 518, 43, 10, 91, 0, 140, 5, 517 >,
 	< 519, 43, 5, 58, 0, 125, 2, 518 >,
 	< 520, 43, 4, 0, 0, 148, 8, 519 >,
 	< 521, 43, 10, 62, 0, 116, 9, 520 >,
 	< 522, 43, 3, 72, 45, 169, 3, 521 >,
 	< 523, 43, 2, 67, 0, 125, 4, 522 >,
 	< 524, 43, 9, 0, 0, 135, 0, 523 >,
 	< 525, 43, 10, 94, 0, 131, 7, 524 >,
 	< 526, 43, 4, 0, 0, 133, 6, 525 >,
 	< 527, 43, 7, 53, 0, 179, 1, 526 >,
 	// order 44
 	< 528, 44, 10, 76, 36, 196, 5, -1 >,
 	< 529, 44, 7, 0, 76, 134, 2, 528 >,
 	< 530, 44, 3, 46, 0, 187, 8, 529 >,
 	< 531, 44, 5, 45, 68, 107, 9, 530 >,
 	< 532, 44, 10, 0, 87, 102, 3, 531 >,
 	< 533, 44, 6, 0, 0, 169, 4, 532 >,
 	< 534, 44, 4, 88, 73, 160, 0, 533 >,
 	< 535, 44, 3, 0, 0, 175, 7, 534 >,
 	< 536, 44, 7, 0, 0, 100, 6, 535 >,
 	< 537, 44, 1, 0, 0, 120, 1, 536 >,
 	< 538, 44, 5, 0, 38, 152, 5, 537 >,
 	< 539, 44, 3, 82, 86, 128, 2, 538 >,
 	// order 45
 	< 540, 45, 10, 0, 0, 144, 8, -1 >,
 	< 541, 45, 10, 48, 0, 164, 9, 540 >,
 	< 542, 45, 6, 0, 0, 169, 3, 541 >,
 	< 543, 45, 2, 94, 77, 109, 4, 542 >,
 	< 544, 45, 7, 0, 0, 133, 0, 543 >,
 	< 545, 45, 9, 0, 0, 124, 7, 544 >,
 	< 546, 45, 5, 81, 32, 149, 6, 545 >,
 	< 547, 45, 10, 0, 71, 173, 1, 546 >,
 	< 548, 45, 3, 0, 60, 136, 5, 547 >,
 	< 549, 45, 7, 0, 0, 188, 2, 548 >,
 	< 550, 45, 10, 53, 34, 146, 8, 549 >,
 	< 551, 45, 2, 93, 46, 142, 9, 550 >,
 	// order 46
 	< 552, 46, 9, 87, 0, 192, 3, -1 >,
 	< 553, 46, 7, 0, 79, 100, 4, 552 >,
 	< 554, 46, 3, 0, 0, 140, 0, 553 >,
 	< 555, 46, 1, 94, 75, 163, 7, 554 >,
 	< 556, 46, 10, 0, 0, 188, 6, 555 >,
 	< 557, 46, 3, 86, 55, 103, 1, 556 >,
 	< 558, 46, 3, 54, 0, 141, 5, 557 >,
 	< 559, 46, 3, 0, 61, 104, 2, 558 >,
 	< 560, 46, 10, 0, 0, 197, 8, 559 >,
 	< 561, 46, 4, 0, 77, 139, 9, 560 >,
 	< 562, 46, 3, 0, 0, 110, 3, 561 >,
 	< 563, 46, 7, 0, 63, 194, 4, 562 >,
 	// order 47
 	< 564, 47, 3, 0, 76, 129, 0, -1 >,
 	< 565, 47, 7, 54, 92, 199, 7, 564 >,
 	< 566, 47, 8, 97, 0, 160, 6, 565 >,
 	< 567, 47, 7, 0, 0, 131, 1, 566 >,
 	< 568, 47, 6, 0, 39, 118, 5, 567 >,
 	< 569, 47, 1, 30, 82, 181, 2, 568 >,
 	< 570, 47, 8, 34, 50, 119, 8, 569 >,
 	< 571, 47, 3, 0, 44, 197, 9, 570 >,
 	< 572, 47, 1, 78, 61, 109, 3, 571 >,
 	< 573, 47, 1, 96, 0, 157, 4, 572 >,
 	< 574, 47, 2, 0, 0, 115, 0, 573 >,
 	< 575, 47, 8, 0, 0, 168, 7, 574 >,
 	// order 48
 	< 576, 48, 8, 48, 0, 119, 6, -1 >,
 	< 577, 48, 10, 48, 58, 139, 1, 576 >,
 	< 578, 48, 4, 38, 45, 111, 5, 577 >,
 	< 579, 48, 5, 74, 100, 131, 2, 578 >,
 	< 580, 48, 8, 45, 78, 169, 8, 579 >,
 	< 581, 48, 2, 0, 95, 184, 9, 580 >,
 	< 582, 48, 5, 0, 87, 149, 3, 581 >,
 	< 583, 48, 7, 89, 0, 109, 4, 582 >,
 	< 584, 48, 6, 32, 0, 180, 0, 583 >,
 	< 585, 48, 8, 0, 0, 189, 7, 584 >,
 	< 586, 48, 6, 83, 0, 146, 6, 585 >,
 	< 587, 48, 3, 52, 0, 156, 1, 586 >,
 	// order 49
 	< 588, 49, 9, 71, 0, 170, 5, -1 >,
 	< 589, 49, 7, 0, 0, 130, 2, 588 >,
 	< 590, 49, 10, 98, 0, 193, 8, 589 >,
 	< 591, 49, 3, 0, 0, 118, 9, 590 >,
 	< 592, 49, 7, 94, 0, 122, 3, 591 >,
 	< 593, 49, 10, 0, 0, 168, 4, 592 >,
 	< 594, 49, 2, 0, 66, 130, 0, 593 >,
 	< 595, 49, 6, 0, 0, 117, 7, 594 >,
 	< 596, 49, 10, 0, 0, 136, 6, 595 >,
 	< 597, 49, 7, 0, 51, 192, 1, 596 >,
 	< 598, 49, 7, 89, 0, 120, 5, 597 >,
 	< 599, 49, 2, 79, 0, 166, 2, 598 >
 };
